LiTeLLab/finalCaseStudies/powerk4.z3.output.txt
sat
(
  (define-fun otl_gt_Old_x1_1 () (_ BitVec 6)
    #b111111)
  (define-fun otl162 () (_ BitVec 6)
    #b111111)
  (define-fun otl167 () (_ BitVec 6)
    #b111111)
  (define-fun m2w3cool2 () (_ BitVec 6)
    #b000000)
  (define-fun otl102 () (_ BitVec 6)
    #b111111)
  (define-fun otl_gt_Old_x3_2 () (_ BitVec 6)
    #b010101)
  (define-fun otl_eq_x2_0 () (_ BitVec 6)
    #b111111)
  (define-fun otl71 () (_ BitVec 6)
    #b010101)
  (define-fun otl17 () (_ BitVec 6)
    #b111111)
  (define-fun otl90 () (_ BitVec 6)
    #b111111)
  (define-fun otl9 () (_ BitVec 6)
    #b000001)
  (define-fun otl154 () (_ BitVec 6)
    #b111111)
  (define-fun otl164 () (_ BitVec 6)
    #b000000)
  (define-fun otl80 () (_ BitVec 6)
    #b000000)
  (define-fun m1w2cool4 () (_ BitVec 6)
    #b000001)
  (define-fun otl127 () (_ BitVec 6)
    #b111111)
  (define-fun m2w2cool1 () (_ BitVec 6)
    #b000001)
  (define-fun otl_eq_Old_x3_3 () (_ BitVec 6)
    #b000000)
  (define-fun otl_eq_Old_x2_2 () (_ BitVec 6)
    #b101010)
  (define-fun m2 () (_ BitVec 6)
    #b010101)
  (define-fun otl74 () (_ BitVec 6)
    #b010101)
  (define-fun otl15 () (_ BitVec 6)
    #b000001)
  (define-fun otl37 () (_ BitVec 6)
    #b100110)
  (define-fun otl_gt_Old_x2_3 () (_ BitVec 6)
    #b000000)
  (define-fun otl123 () (_ BitVec 6)
    #b000000)
  (define-fun otl77 () (_ BitVec 6)
    #b101010)
  (define-fun otl_gt_x1_4 () (_ BitVec 6)
    #b001000)
  (define-fun otl_geq_Old_x3_2 () (_ BitVec 6)
    #b111111)
  (define-fun otl_gt_Old_x2_2 () (_ BitVec 6)
    #b010100)
  (define-fun otl133 () (_ BitVec 6)
    #b111111)
  (define-fun otl_gt_x3_4 () (_ BitVec 6)
    #b000000)
  (define-fun otl117 () (_ BitVec 6)
    #b010101)
  (define-fun powerw3cool1 () (_ BitVec 6)
    #b000000)
  (define-fun otl_eq_Old_x2_3 () (_ BitVec 6)
    #b000000)
  (define-fun otl_eq_Old_x3_2 () (_ BitVec 6)
    #b101010)
  (define-fun otl_lt_x2_3 () (_ BitVec 6)
    #b111111)
  (define-fun otl120 () (_ BitVec 6)
    #b101010)
  (define-fun iw1m1 () (_ BitVec 6)
    #b111111)
  (define-fun otl_lt_x2_2 () (_ BitVec 6)
    #b111111)
  (define-fun m1w1cool2 () (_ BitVec 6)
    #b000000)
  (define-fun otl28 () (_ BitVec 6)
    #b110111)
  (define-fun otl149 () (_ BitVec 6)
    #b000000)
  (define-fun otl65 () (_ BitVec 6)
    #b101010)
  (define-fun otl_eq_x3_0 () (_ BitVec 6)
    #b111111)
  (define-fun otl_lt_x1_2 () (_ BitVec 6)
    #b110011)
  (define-fun otl47 () (_ BitVec 6)
    #b000000)
  (define-fun otl84 () (_ BitVec 6)
    #b111111)
  (define-fun otl_gt_Old_x3_3 () (_ BitVec 6)
    #b000001)
  (define-fun otl_eq_x1_0 () (_ BitVec 6)
    #b110011)
  (define-fun otl5 () (_ BitVec 6)
    #b111111)
  (define-fun otl_lt_x1_1 () (_ BitVec 6)
    #b110011)
  (define-fun otl145 () (_ BitVec 6)
    #b111111)
  (define-fun i_loopInt () Int
    1)
  (define-fun otl157 () (_ BitVec 6)
    #b111111)
  (define-fun otl49 () (_ BitVec 6)
    #b101110)
  (define-fun otl34 () (_ BitVec 6)
    #b001000)
  (define-fun otl106 () (_ BitVec 6)
    #b000000)
  (define-fun otl169 () (_ BitVec 6)
    #b000000)
  (define-fun otl_geq_Old_x2_2 () (_ BitVec 6)
    #b111110)
  (define-fun otl_gt_x2_4 () (_ BitVec 6)
    #b000000)
  (define-fun otl_eq_Old_x1_2 () (_ BitVec 6)
    #b100010)
  (define-fun otl_eq_Old_x1_1 () (_ BitVec 6)
    #b000000)
  (define-fun otl141 () (_ BitVec 6)
    #b000000)
  (define-fun otl108 () (_ BitVec 6)
    #b101010)
  (define-fun otl63 () (_ BitVec 6)
    #b111111)
  (define-fun otl_geq_Old_x1_4 () (_ BitVec 6)
    #b011000)
  (define-fun otl59 () (_ BitVec 6)
    #b001000)
  (define-fun powerw2cool2 () (_ BitVec 6)
    #b000001)
  (define-fun otl_lt_x3_3 () (_ BitVec 6)
    #b111111)
  (define-fun otl_gt_Old_x1_2 () (_ BitVec 6)
    #b011100)
  (define-fun otl92 () (_ BitVec 6)
    #b000000)
  (define-fun otl_geq_Old_x1_2 () (_ BitVec 6)
    #b111110)
  (define-fun iw1m2 () (_ BitVec 6)
    #b111111)
  (define-fun otl11 () (_ BitVec 6)
    #b111111)
  (define-fun m3 () (_ BitVec 6)
    #b000000)
  (define-fun otl98 () (_ BitVec 6)
    #b000000)
  (define-fun power () (_ BitVec 6)
    #b010101)
  (define-fun otl135 () (_ BitVec 6)
    #b000000)
  (define-fun otl41 () (_ BitVec 6)
    #b011001)
  (define-fun m1 () (_ BitVec 6)
    #b010001)
  (define-fun otl159 () (_ BitVec 6)
    #b000000)
  (define-fun otl20 () (_ BitVec 6)
    #b000000)
  (define-fun otl114 () (_ BitVec 6)
    #b010101)
  (define-fun otl_lt_x3_2 () (_ BitVec 6)
    #b111111)
  (define-fun otl55 () (_ BitVec 6)
    #b010001)
  (define-fun otl_geq_Old_x3_1 () (_ BitVec 6)
    #b111111)
  (define-fun otl31 () (_ BitVec 6)
    #b000000)
  (define-fun otl3 () (_ BitVec 6)
    #b000001)
  (define-fun otl22 () (_ BitVec 6)
    #b111111)
  (define-fun otl_geq_Old_x2_1 () (_ BitVec 6)
    #b111110)
  (define-fun otl161 () (_ BitVec 6)
    #b111111)
  (define-fun otl27 () (_ BitVec 6)
    #b101110)
  (define-fun otl94 () (_ BitVec 6)
    #b111111)
  (define-fun otl42 () (_ BitVec 6)
    #b011001)
  (define-fun otl130 () (_ BitVec 6)
    #b000000)
  (define-fun otl83 () (_ BitVec 6)
    #b111110)
  (define-fun otl53 () (_ BitVec 6)
    #b111111)
  (define-fun otl128 () (_ BitVec 6)
    #b111111)
  (define-fun otl56 () (_ BitVec 6)
    #b010001)
  (define-fun otl116 () (_ BitVec 6)
    #b101010)
  (define-fun otl166 () (_ BitVec 6)
    #b111111)
  (define-fun otl29 () (_ BitVec 6)
    #b010001)
  (define-fun otl89 () (_ BitVec 6)
    #b111111)
  (define-fun otl86 () (_ BitVec 6)
    #b111111)
  (define-fun otl19 () (_ BitVec 6)
    #b101110)
  (define-fun otl147 () (_ BitVec 6)
    #b111111)
  (define-fun otl50 () (_ BitVec 6)
    #b100010)
  (define-fun otl170 () (_ BitVec 6)
    #b000000)
  (define-fun otl163 () (_ BitVec 6)
    #b111111)
  (define-fun otl143 () (_ BitVec 6)
    #b101010)
  (define-fun otl81 () (_ BitVec 6)
    #b111111)
  (define-fun otl115 () (_ BitVec 6)
    #b010101)
  (define-fun otl39 () (_ BitVec 6)
    #b001000)
  (define-fun otl100 () (_ BitVec 6)
    #b101010)
  (define-fun otl105 () (_ BitVec 6)
    #b101010)
  (define-fun otl35 () (_ BitVec 6)
    #b000000)
  (define-fun in_loop () (_ BitVec 6)
    #b111110)
  (define-fun otl137 () (_ BitVec 6)
    #b111111)
  (define-fun otl44 () (_ BitVec 6)
    #b100110)
  (define-fun otl18 () (_ BitVec 6)
    #b010001)
  (define-fun otl168 () (_ BitVec 6)
    #b111111)
  (define-fun otl153 () (_ BitVec 6)
    #b111111)
  (define-fun otl38 () (_ BitVec 6)
    #b111111)
  (define-fun otl146 () (_ BitVec 6)
    #b111111)
  (define-fun otl54 () (_ BitVec 6)
    #b100010)
  (define-fun otl7 () (_ BitVec 6)
    #b111111)
  (define-fun otl152 () (_ BitVec 6)
    #b111111)
  (define-fun otl110 () (_ BitVec 6)
    #b010101)
  (define-fun costHAvg () Real
    1.25)
  (define-fun otl104 () (_ BitVec 6)
    #b111111)
  (define-fun otl8 () (_ BitVec 6)
    #b000001)
  (define-fun i_loop () (_ BitVec 6)
    #b000001)
  (define-fun otl139 () (_ BitVec 6)
    #b111111)
  (define-fun otl101 () (_ BitVec 6)
    #b111110)
  (define-fun otl24 () (_ BitVec 6)
    #b001100)
  (define-fun otl113 () (_ BitVec 6)
    #b101010)
  (define-fun otl158 () (_ BitVec 6)
    #b111111)
  (define-fun otl23 () (_ BitVec 6)
    #b110011)
  (define-fun costHSum () Real
    10.0)
  (define-fun otl73 () (_ BitVec 6)
    #b101010)
  (define-fun otl70 () (_ BitVec 6)
    #b101010)
  (define-fun otl165 () (_ BitVec 6)
    #b000000)
  (define-fun otl58 () (_ BitVec 6)
    #b010000)
  (define-fun otl67 () (_ BitVec 6)
    #b010101)
  (define-fun otl21 () (_ BitVec 6)
    #b111111)
  (define-fun otl25 () (_ BitVec 6)
    #b101110)
  (define-fun otl16 () (_ BitVec 6)
    #b111110)
  (define-fun otl72 () (_ BitVec 6)
    #b010101)
  (define-fun otl60 () (_ BitVec 6)
    #b001000)
  (define-fun otl45 () (_ BitVec 6)
    #b111111)
  (define-fun otl156 () (_ BitVec 6)
    #b000001)
  (define-fun otl26 () (_ BitVec 6)
    #b111111)
  (define-fun otl43 () (_ BitVec 6)
    #b111111)
  (define-fun otl1 () (_ BitVec 6)
    #b111111)
  (define-fun otl150 () (_ BitVec 6)
    #b111111)
  (define-fun otl51 () (_ BitVec 6)
    #b011101)
  (define-fun otl95 () (_ BitVec 6)
    #b111111)
  (define-fun otl91 () (_ BitVec 6)
    #b111111)
  (define-fun otl121 () (_ BitVec 6)
    #b000000)
  (define-fun otl88 () (_ BitVec 6)
    #b111111)
  (define-fun otl78 () (_ BitVec 6)
    #b000000)
  (define-fun otl46 () (_ BitVec 6)
    #b101110)
  (define-fun otl52 () (_ BitVec 6)
    #b111111)
  (define-fun otl36 () (_ BitVec 6)
    #b001100)
  (define-fun otl107 () (_ BitVec 6)
    #b111111)
  (define-fun otl75 () (_ BitVec 6)
    #b010101)
  (define-fun costLSum () Real
    0.0)
  (define-fun otl109 () (_ BitVec 6)
    #b101010)
  (define-fun otl10 () (_ BitVec 6)
    #b111110)
  (define-fun otl119 () (_ BitVec 6)
    #b111111)
  (define-fun otl48 () (_ BitVec 6)
    #b111111)
  (define-fun otl112 () (_ BitVec 6)
    #b111111)
  (define-fun otl160 () (_ BitVec 6)
    #b000000)
  (define-fun otl132 () (_ BitVec 6)
    #b111111)
  (define-fun otl151 () (_ BitVec 6)
    #b111111)
  (define-fun otl144 () (_ BitVec 6)
    #b111111)
  (define-fun otl79 () (_ BitVec 6)
    #b000000)
  (define-fun otl76 () (_ BitVec 6)
    #b111111)
  (define-fun otl134 () (_ BitVec 6)
    #b111111)
  (define-fun otl125 () (_ BitVec 6)
    #b101010)
  (define-fun otl142 () (_ BitVec 6)
    #b000000)
  (define-fun otl40 () (_ BitVec 6)
    #b110010)
  (define-fun otl33 () (_ BitVec 6)
    #b101110)
  (define-fun otl66 () (_ BitVec 6)
    #b101010)
  (define-fun otl103 () (_ BitVec 6)
    #b111111)
  (define-fun otl124 () (_ BitVec 6)
    #b111111)
  (define-fun otl61 () (_ BitVec 6)
    #b111111)
  (define-fun otl4 () (_ BitVec 6)
    #b111110)
  (define-fun otl2 () (_ BitVec 6)
    #b000001)
  (define-fun otl68 () (_ BitVec 6)
    #b111111)
  (define-fun otl57 () (_ BitVec 6)
    #b111111)
  (define-fun otl171 () (_ BitVec 6)
    #b111111)
  (define-fun otl129 () (_ BitVec 6)
    #b111111)
  (define-fun otl99 () (_ BitVec 6)
    #b000000)
  (define-fun otl93 () (_ BitVec 6)
    #b000000)
  (define-fun otlDenom () Int
    8)
  (define-fun otl87 () (_ BitVec 6)
    #b000000)
  (define-fun otl64 () (_ BitVec 6)
    #b111111)
  (define-fun otl126 () (_ BitVec 6)
    #b111111)
  (define-fun otl6 () (_ BitVec 6)
    #b000000)
  (define-fun otl85 () (_ BitVec 6)
    #b111111)
  (define-fun otl32 () (_ BitVec 6)
    #b000000)
  (define-fun otl138 () (_ BitVec 6)
    #b111111)
  (define-fun otl118 () (_ BitVec 6)
    #b010101)
  (define-fun otl111 () (_ BitVec 6)
    #b111111)
  (define-fun otl155 () (_ BitVec 6)
    #b000001)
  (define-fun otl136 () (_ BitVec 6)
    #b000000)
  (define-fun otl131 () (_ BitVec 6)
    #b111111)
  (define-fun otl140 () (_ BitVec 6)
    #b000000)
  (define-fun otl14 () (_ BitVec 6)
    #b000001)
  (define-fun otl13 () (_ BitVec 6)
    #b111111)
  (define-fun otl82 () (_ BitVec 6)
    #b101010)
  (define-fun otl97 () (_ BitVec 6)
    #b000000)
  (define-fun otl30 () (_ BitVec 6)
    #b000000)
  (define-fun otl96 () (_ BitVec 6)
    #b111111)
  (define-fun otl148 () (_ BitVec 6)
    #b101010)
  (define-fun otl12 () (_ BitVec 6)
    #b000000)
  (define-fun otl62 () (_ BitVec 6)
    #b111111)
  (define-fun otl0 () (_ BitVec 6)
    #b000000)
  (define-fun otl122 () (_ BitVec 6)
    #b000000)
  (define-fun otl69 () (_ BitVec 6)
    #b111111)
  (define-fun otlRC_Old_x2 ((x!0 Int)) Bool (ite (= x!0 0) true false))
  (define-fun /0 ((x!0 Real) (x!1 Real)) Real 1.25)
  (define-fun otlRC_Old_x1 ((x!0 Int)) Bool (ite (= x!0 3) true (ite (= x!0 4) true false)))
  (define-fun Old_x2 ((x!0 Int)) Real (ite (= x!0 0) 0.7777777777? (ite (= x!0 2) 2.7777777777? (ite (= x!0 4) 2.5555555555? (ite (= x!0 6) 0.0 2.0)))))
  (define-fun Old_x3 ((x!0 Int)) Real (ite (= x!0 0) 1261.7777777777? (ite (= x!0 2) 2.7777777777? (ite (= x!0 4) 2.5555555555? (ite (= x!0 6) 0.0 2.0)))))
  (define-fun x3 ((x!0 Int)) Real 0.0)
  (define-fun otlRC_Old_x3 ((x!0 Int)) Bool false)
  (define-fun x2 ((x!0 Int)) Real 0.0)
  (define-fun otlRC_Delta ((x!0 Int)) Bool false)
  (define-fun x1 ((x!0 Int)) Real (ite (= x!0 2) 2.7777777777? (ite (= x!0 3) 4.7777777777? 0.0)))
  (define-fun otlLength ((x!0 Int)) Int 2)
  (define-fun Old_x1 ((x!0 Int)) Real (ite (= x!0 0) 1.2222222222? (ite (= x!0 2) 2.7777777777? (ite (= x!0 3) 4.7777777777? (ite (= x!0 4) 7.3333333333? (ite (= x!0 6) 0.0 2.0))))))
  (define-fun otlDelta ((x!0 Int)) Real (ite (= x!0 1) 2.7777777777? (ite (= x!0 3) 2.5555555555? (ite (= x!0 5) 0.0 2.0))))
)
(objectives
 (costHAvg 1.25)
 (costLSum 0)
)
(:added-eqs                       5311849
 :arith-eq-adapter                6553
 :arith-assume-eqs                39
 :arith-bound-propagations-lp     328621
 :arith-branch                    10425
 :arith-conflicts                 14367
 :arith-cube-calls                2607
 :arith-diseq                     777040
 :arith-fixed-eqs                 325282
 :arith-gcd-calls                 10431
 :arith-gcd-conflict              2
 :arith-gomory-cuts               1
 :arith-grobner-calls             38
 :arith-grobner-conflicts         32
 :arith-horner-calls              44
 :arith-horner-conflicts          6
 :arith-horner-cross-nested-forms 448
 :arith-lower                     3892862
 :arith-make-feasible             225222
 :arith-max-columns               1292
 :arith-max-rows                  1074
 :arith-nla-explanations          2714
 :arith-nla-lemmas                286
 :arith-offset-eqs                147247
 :arith-patches                   10429
 :arith-patches-success           1
 :arith-upper                     1582931
 :binary-propagations             3942610
 :bv-bit2core                     743792
 :bv-diseqs                       1888
 :bv-dynamic-diseqs               3409
 :bv-dynamic-eqs                  10747
 :bv->core-eq                     2781626
 :conflicts                       17558
 :decisions                       149943
 :del-clause                      217021
 :final-checks                    10707
 :interface-eqs                   39
 :max-memory                      122.82
 :memory                          116.98
 :minimized-lits                  33064
 :mk-bool-var                     551431
 :mk-clause                       230494
 :mk-clause-binary                10085
 :num-allocs                      11264866808.00
 :num-checks                      33
 :propagations                    14407678
 :restarts                        135
 :rlimit-count                    135700986
 :solve-eqs-elim-vars             131
 :solve-eqs-steps                 774
 :time                            126.47
 :total-time                      126.56)
